container_size = [45, 30, 16];
Box = B(1..7);
no_boxes = [16, 23, 17, 9, 8, 17, 10];
box_size =
[|       Length: Width: Height: 
 | B(1):      4,     3,      2
 | B(2):      4,     2,      2
 | B(3):      3,     3,      2
 | B(4):      5,     5,      2
 | B(5):      8,     4,      2
 | B(6):      6,     2,      2
 | B(7):      9,     2,      2
 |];
